\ENCODING=ISO-8859-1
\Problem name: ilog.cplex

Minimize
 obj: 0.5 D0 + 0.5 D1
Subject To
 C13(0):       D0 >= 0
 C1(0,0,1,0):  P(0,0,1,0) + P(1,0,0,0)  = 1
 C3(0,0,1,0):  - 14.5 P(1,0,0,0) + W(0,0) - W(1,0) - 0.5 M(1,0,1)
               - 14.5 M(1,0,0) - 14.5 M(1,0,2) >= -24
 C4(0,0,1,0):  - 14.5 P(1,0,0,0) + W(0,0) - W(1,0) - 0.5 M(1,0,1)
               - 14.5 M(0,0,0) - 14.5 M(0,0,1) >= -24
 C5(0,0,1,0):  - 14.5 P(1,0,0,0) + W(0,0) - 0.5 M(1,0,1) >= -14.5
 C1(0,0,1,1):  P(0,0,1,1) + P(1,1,0,0)  = 1
 C3(0,0,1,1):  W(0,0) - 14.5 P(1,1,0,0) - W(1,1) - 0.5 M(1,1,1) - 14.5 M(1,1,0)
               - 14.5 M(1,1,2) >= -27
 C4(0,0,1,1):  W(0,0) - 14.5 M(0,0,0) - 14.5 M(0,0,1) - 14.5 P(1,1,0,0)
               - W(1,1) - 0.5 M(1,1,1) >= -27
 C5(0,0,1,1):  W(0,0) - 14.5 P(1,1,0,0) - 0.5 M(1,1,1) >= -14.5
 C7(0,0):      M(0,0,0) + M(0,0,1) + M(0,0,2)  = 1
 C8(0,0):      M(0,0,2)  = 1
 C14(0,0):     D0 - W(0,0) - 0.5 M(0,0,1) >= -2
 C11(0,0,1,0): - 14.5 P(1,0,0,0) - W(1,0) - 0.5 M(1,0,1) + B(0,0) - 14.5 L(1,0)
               - 14.5 L(0,0) >= -38.5
 C11(0,0,1,1): - 14.5 P(1,0,0,0) - W(1,1) - 0.5 M(1,1,1) + B(0,0) - 14.5 L(1,0)
               - 14.5 L(0,0) >= -41.5
 C11(0,1,1,0): - 14.5 P(1,0,0,0) - W(1,0) - 0.5 M(1,0,1) + B(0,1) - 14.5 L(1,1)
               - 14.5 L(0,1) >= -38.5
 C11(0,1,1,1): - 14.5 P(1,0,0,0) - W(1,1) - 0.5 M(1,1,1) + B(0,1) - 14.5 L(1,1)
               - 14.5 L(0,1) >= -41.5
 C11(0,2,1,0): - 14.5 P(1,0,0,0) - W(1,0) - 0.5 M(1,0,1) + B(0,2) - 14.5 L(1,2)
               - 14.5 L(0,2) >= -38.5
 C11(0,2,1,1): - 14.5 P(1,0,0,0) - W(1,1) - 0.5 M(1,1,1) + B(0,2) - 14.5 L(1,2)
               - 14.5 L(0,2) >= -41.5
 C6(0):        W(0,0) - B(0,0) - B(0,1) - B(0,2) >= 0
 C9(0):        L(0,0) + L(0,1) + L(0,2)  = 1
 C10(0):       L(0,1) >= 0
 C13(1):       D1 >= 0
 C1(1,0,0,0):  P(0,0,1,0) + P(1,0,0,0)  = 1
 C3(1,0,0,0):  - 14.5 P(0,0,1,0) - W(0,0) + W(1,0) - 14.5 M(0,0,0)
               - 0.5 M(0,0,1) - 14.5 M(0,0,2) >= -23
 C4(1,0,0,0):  - 14.5 P(0,0,1,0) - W(0,0) + W(1,0) - 14.5 M(1,0,1)
               - 14.5 M(1,0,0) - 0.5 M(0,0,1) >= -23
 C5(1,0,0,0):  - 14.5 P(0,0,1,0) + W(1,0) - 0.5 M(0,0,1) >= -14.5
 C7(1,0):      M(1,0,1) + M(1,0,0) + M(1,0,2)  = 1
 C8(1,0):      M(1,0,2)  = 0
 C14(1,0):     D1 - W(1,0) - 0.5 M(1,0,1) >= -4
 C1(1,1,0,0):  P(0,0,1,1) + P(1,1,0,0)  = 1
 C3(1,1,0,0):  - W(0,0) - 14.5 M(0,0,0) - 0.5 M(0,0,1) - 14.5 P(0,0,1,1)
               + W(1,1) - 14.5 M(0,0,2) >= -23
 C4(1,1,0,0):  - W(0,0) - 0.5 M(0,0,1) - 14.5 P(0,0,1,1) + W(1,1)
               - 14.5 M(1,1,1) - 14.5 M(1,1,0) >= -23
 C5(1,1,0,0):  - 0.5 M(0,0,1) - 14.5 P(0,0,1,1) + W(1,1) >= -14.5
 C2(1,1):      - W(1,0) - 0.5 M(1,0,1) + W(1,1) >= 5
 C7(1,1):      M(1,1,1) + M(1,1,0) + M(1,1,2)  = 1
 C8(1,1):      M(1,1,2)  = 1
 C14(1,1):     D1 - W(1,1) - 0.5 M(1,1,1) >= -7
 C11(1,0,0,0): - 14.5 P(0,0,1,0) - W(0,0) - 0.5 M(0,0,1) - 14.5 L(1,0)
               - 14.5 L(0,0) + B(1,0) >= -37.5
 C11(1,1,0,0): - 14.5 P(0,0,1,0) - W(0,0) - 0.5 M(0,0,1) - 14.5 L(1,1)
               - 14.5 L(0,1) + B(1,1) >= -37.5
 C11(1,2,0,0): - 14.5 P(0,0,1,0) - W(0,0) - 0.5 M(0,0,1) - 14.5 L(1,2)
               - 14.5 L(0,2) + B(1,2) >= -37.5
 C6(1):        W(1,0) - B(1,0) - B(1,1) - B(1,2) >= 0
 C9(1):        L(1,0) + L(1,1) + L(1,2)  = 1
 C10(1):       L(1,1) >= 1
Bounds
 0 <= P(0,0,1,0) <= 1
 0 <= P(1,0,0,0) <= 1
 0 <= M(1,0,1) <= 1
 0 <= M(1,0,0) <= 1
 0 <= M(1,0,2) <= 1
 0 <= M(0,0,0) <= 1
 0 <= M(0,0,1) <= 1
 0 <= P(0,0,1,1) <= 1
 0 <= P(1,1,0,0) <= 1
 0 <= M(1,1,1) <= 1
 0 <= M(1,1,0) <= 1
 0 <= M(1,1,2) <= 1
 0 <= M(0,0,2) <= 1
 0 <= L(1,0) <= 1
 0 <= L(0,0) <= 1
 0 <= L(1,1) <= 1
 0 <= L(0,1) <= 1
 0 <= L(1,2) <= 1
 0 <= L(0,2) <= 1
Binaries
 P(0,0,1,0)  P(1,0,0,0)  M(1,0,1)  M(1,0,0)  M(1,0,2)  M(0,0,0)  M(0,0,1) 
 P(0,0,1,1)  P(1,1,0,0)  M(1,1,1)  M(1,1,0)  M(1,1,2)  M(0,0,2)  L(1,0) 
 L(0,0)  L(1,1)  L(0,1)  L(1,2)  L(0,2) 
End
